\ Model pbTransp_10_10_grb.lp
\ LP format - for model browsing. Use MPS format to capture full model detail.
Minimize
  __pwl(x(1,1)) + __pwl(x(1,2)) + __pwl(x(1,3)) + __pwl(x(1,4))
   + __pwl(x(1,5)) + __pwl(x(1,6)) + __pwl(x(1,7)) + __pwl(x(1,8))
   + __pwl(x(1,9)) + __pwl(x(1,10)) + __pwl(x(2,1)) + __pwl(x(2,2))
   + __pwl(x(2,3)) + __pwl(x(2,4)) + __pwl(x(2,5)) + __pwl(x(2,6))
   + __pwl(x(2,7)) + __pwl(x(2,8)) + __pwl(x(2,9)) + __pwl(x(2,10))
   + __pwl(x(3,1)) + __pwl(x(3,2)) + __pwl(x(3,3)) + __pwl(x(3,4))
   + __pwl(x(3,5)) + __pwl(x(3,6)) + __pwl(x(3,7)) + __pwl(x(3,8))
   + __pwl(x(3,9)) + __pwl(x(3,10)) + __pwl(x(4,1)) + __pwl(x(4,2))
   + __pwl(x(4,3)) + __pwl(x(4,4)) + __pwl(x(4,5)) + __pwl(x(4,6))
   + __pwl(x(4,7)) + __pwl(x(4,8)) + __pwl(x(4,9)) + __pwl(x(4,10))
   + __pwl(x(5,1)) + __pwl(x(5,2)) + __pwl(x(5,3)) + __pwl(x(5,4))
   + __pwl(x(5,5)) + __pwl(x(5,6)) + __pwl(x(5,7)) + __pwl(x(5,8))
   + __pwl(x(5,9)) + __pwl(x(5,10)) + __pwl(x(6,1)) + __pwl(x(6,2))
   + __pwl(x(6,3)) + __pwl(x(6,4)) + __pwl(x(6,5)) + __pwl(x(6,6))
   + __pwl(x(6,7)) + __pwl(x(6,8)) + __pwl(x(6,9)) + __pwl(x(6,10))
   + __pwl(x(7,1)) + __pwl(x(7,2)) + __pwl(x(7,3)) + __pwl(x(7,4))
   + __pwl(x(7,5)) + __pwl(x(7,6)) + __pwl(x(7,7)) + __pwl(x(7,8))
   + __pwl(x(7,9)) + __pwl(x(7,10)) + __pwl(x(8,1)) + __pwl(x(8,2))
   + __pwl(x(8,3)) + __pwl(x(8,4)) + __pwl(x(8,5)) + __pwl(x(8,6))
   + __pwl(x(8,7)) + __pwl(x(8,8)) + __pwl(x(8,9)) + __pwl(x(8,10))
   + __pwl(x(9,1)) + __pwl(x(9,2)) + __pwl(x(9,3)) + __pwl(x(9,4))
   + __pwl(x(9,5)) + __pwl(x(9,6)) + __pwl(x(9,7)) + __pwl(x(9,8))
   + __pwl(x(9,9)) + __pwl(x(9,10)) + __pwl(x(10,1)) + __pwl(x(10,2))
   + __pwl(x(10,3)) + __pwl(x(10,4)) + __pwl(x(10,5)) + __pwl(x(10,6))
   + __pwl(x(10,7)) + __pwl(x(10,8)) + __pwl(x(10,9)) + __pwl(x(10,10))
Subject To
 R0: x(1,1) + x(1,2) + x(1,3) + x(1,4) + x(1,5) + x(1,6) + x(1,7) + x(1,8)
   + x(1,9) + x(1,10) <= 264
 R1: x(2,1) + x(2,2) + x(2,3) + x(2,4) + x(2,5) + x(2,6) + x(2,7) + x(2,8)
   + x(2,9) + x(2,10) <= 139
 R2: x(3,1) + x(3,2) + x(3,3) + x(3,4) + x(3,5) + x(3,6) + x(3,7) + x(3,8)
   + x(3,9) + x(3,10) <= 98
 R3: x(4,1) + x(4,2) + x(4,3) + x(4,4) + x(4,5) + x(4,6) + x(4,7) + x(4,8)
   + x(4,9) + x(4,10) <= 13
 R4: x(5,1) + x(5,2) + x(5,3) + x(5,4) + x(5,5) + x(5,6) + x(5,7) + x(5,8)
   + x(5,9) + x(5,10) <= 245
 R5: x(6,1) + x(6,2) + x(6,3) + x(6,4) + x(6,5) + x(6,6) + x(6,7) + x(6,8)
   + x(6,9) + x(6,10) <= 73
 R6: x(7,1) + x(7,2) + x(7,3) + x(7,4) + x(7,5) + x(7,6) + x(7,7) + x(7,8)
   + x(7,9) + x(7,10) <= 22
 R7: x(8,1) + x(8,2) + x(8,3) + x(8,4) + x(8,5) + x(8,6) + x(8,7) + x(8,8)
   + x(8,9) + x(8,10) <= 7
 R8: x(9,1) + x(9,2) + x(9,3) + x(9,4) + x(9,5) + x(9,6) + x(9,7) + x(9,8)
   + x(9,9) + x(9,10) <= 1
 R9: x(10,1) + x(10,2) + x(10,3) + x(10,4) + x(10,5) + x(10,6) + x(10,7)
   + x(10,8) + x(10,9) + x(10,10) <= 138
 R10: x(1,1) + x(2,1) + x(3,1) + x(4,1) + x(5,1) + x(6,1) + x(7,1) + x(8,1)
   + x(9,1) + x(10,1) >= 258
 R11: x(1,2) + x(2,2) + x(3,2) + x(4,2) + x(5,2) + x(6,2) + x(7,2) + x(8,2)
   + x(9,2) + x(10,2) >= 62
 R12: x(1,3) + x(2,3) + x(3,3) + x(4,3) + x(5,3) + x(6,3) + x(7,3) + x(8,3)
   + x(9,3) + x(10,3) >= 270
 R13: x(1,4) + x(2,4) + x(3,4) + x(4,4) + x(5,4) + x(6,4) + x(7,4) + x(8,4)
   + x(9,4) + x(10,4) >= 42
 R14: x(1,5) + x(2,5) + x(3,5) + x(4,5) + x(5,5) + x(6,5) + x(7,5) + x(8,5)
   + x(9,5) + x(10,5) >= 79
 R15: x(1,6) + x(2,6) + x(3,6) + x(4,6) + x(5,6) + x(6,6) + x(7,6) + x(8,6)
   + x(9,6) + x(10,6) >= 127
 R16: x(1,7) + x(2,7) + x(3,7) + x(4,7) + x(5,7) + x(6,7) + x(7,7) + x(8,7)
   + x(9,7) + x(10,7) >= 23
 R17: x(1,8) + x(2,8) + x(3,8) + x(4,8) + x(5,8) + x(6,8) + x(7,8) + x(8,8)
   + x(9,8) + x(10,8) >= 9
 R18: x(1,9) + x(2,9) + x(3,9) + x(4,9) + x(5,9) + x(6,9) + x(7,9) + x(8,9)
   + x(9,9) + x(10,9) >= 6
 R19: x(1,10) + x(2,10) + x(3,10) + x(4,10) + x(5,10) + x(6,10) + x(7,10)
   + x(8,10) + x(9,10) + x(10,10) >= 124
Bounds
PWLObj
 x(1,1): (0, 0) (0, 0) (0, 23.12009971623631) (258, 89.94911759762454)
 x(1,2): (0, 0) (0, 0) (0, 16.99906212931209) (62, 69.4049303433995)
 x(1,3): (0, 0) (0, 0) (0, 5.863759296177518) (264, 21.80405816166958)
 x(1,4): (0, 0) (0, 0) (0, 47.02028751869407) (42, 174.8844159465768)
 x(1,5): (0, 0) (0, 0) (0, 23.14718676323231) (79, 86.77109265894137)
 x(1,6): (0, 0) (0, 0) (0, 23.1309764805306) (127, 87.41762960695749)
 x(1,7): (0, 0) (0, 0) (0, 45.34383956051436) (23, 153.6311994555462)
 x(1,8): (0, 0) (0, 0) (0, 34.26138026824177) (9, 114.778729286601)
 x(1,9): (0, 0) (0, 0) (0, 41.21727131187625) (6, 132.1011444389131)
 x(1,10): (0, 0) (0, 0) (0, 20.82979241635151) (124, 75.40768966065775)
 x(2,1): (0, 0) (0, 0) (0, 15.43844262877062) (139, 60.33584274247978)
 x(2,2): (0, 0) (0, 0) (0, 0.3616821729640877) (62, 1.476700645604244)
 x(2,3): (0, 0) (0, 0) (0, 14.78148762329107) (139, 57.76836007258699)
 x(2,4): (0, 0) (0, 0) (0, 30.82002039040447) (42, 114.6301213767479)
 x(2,5): (0, 0) (0, 0) (0, 16.99871527924874) (79, 63.72252117141003)
 x(2,6): (0, 0) (0, 0) (0, 16.4263456166087) (127, 62.07918624262196)
 x(2,7): (0, 0) (0, 0) (0, 24.24324095314632) (23, 82.13945317425235)
 x(2,8): (0, 0) (0, 0) (0, 20.55682816094505) (9, 68.86723757196063)
 x(2,9): (0, 0) (0, 0) (0, 20.10598600579332) (6, 64.43958265312834)
 x(2,10): (0, 0) (0, 0) (0, 10.06773300123656) (124, 36.44705000265127)
 x(3,1): (0, 0) (0, 0) (0, 17.58576671663529) (98, 67.48101143105229)
 x(3,2): (0, 0) (0, 0) (0, 12.65887605374307) (62, 51.68452259614854)
 x(3,3): (0, 0) (0, 0) (0, 11.0342065673006) (98, 42.34102678026811)
 x(3,4): (0, 0) (0, 0) (0, 43.46413131980125) (42, 161.6578634800291)
 x(3,5): (0, 0) (0, 0) (0, 25.3172355222854) (79, 94.9058825957171)
 x(3,6): (0, 0) (0, 0) (0, 25.51660268688255) (98, 97.9136244293701)
 x(3,7): (0, 0) (0, 0) (0, 39.50750377549767) (23, 133.8568866543372)
 x(3,8): (0, 0) (0, 0) (0, 23.49351789822294) (9, 78.70541436795496)
 x(3,9): (0, 0) (0, 0) (0, 37.69872376086243) (6, 120.8242174746157)
 x(3,10): (0, 0) (0, 0) (0, 19.65468044800418) (98, 75.41995395235257)
 x(4,1): (0, 0) (0, 0) (0, 20.50733815745827) (13, 68.24606859311002)
 x(4,2): (0, 0) (0, 0) (0, 6.199892931324593) (13, 20.63253236535885)
 x(4,3): (0, 0) (0, 0) (0, 25.27648656616951) (13, 84.1172473356937)
 x(4,4): (0, 0) (0, 0) (0, 30.04563497488073) (13, 99.98842607827747)
 x(4,5): (0, 0) (0, 0) (0, 23.36882720268499) (13, 77.76877583866028)
 x(4,6): (0, 0) (0, 0) (0, 22.89191236181388) (13, 76.18165796440186)
 x(4,7): (0, 0) (0, 0) (0, 21.4611678392005) (13, 71.42030434162683)
 x(4,8): (0, 0) (0, 0) (0, 17.6201384236672) (9, 59.02906077596622)
 x(4,9): (0, 0) (0, 0) (0, 17.59273775506915) (6, 56.3846348214873)
 x(4,10): (0, 0) (0, 0) (0, 14.7843600670048) (13, 49.20065410200955)
 x(5,1): (0, 0) (0, 0) (0, 7.442642996287474) (245, 27.77639799641715)
 x(5,2): (0, 0) (0, 0) (0, 7.59532563224583) (62, 31.01071355768914)
 x(5,3): (0, 0) (0, 0) (0, 19.22682774040917) (245, 71.75569482407771)
 x(5,4): (0, 0) (0, 0) (0, 27.65899265805532) (42, 102.8731858509276)
 x(5,5): (0, 0) (0, 0) (0, 24.23221114275882) (79, 90.8384876273292)
 x(5,6): (0, 0) (0, 0) (0, 21.45481876455012) (127, 81.08301876587362)
 x(5,7): (0, 0) (0, 0) (0, 27.8348322054643) (23, 94.30826105191939)
 x(5,8): (0, 0) (0, 0) (0, 9.78896579092623) (9, 32.79392265331456)
 x(5,9): (0, 0) (0, 0) (0, 22.61923425651745) (6, 72.49453048476943)
 x(5,10): (0, 0) (0, 0) (0, 18.05248676083794) (124, 65.35333103923675)
 x(6,1): (0, 0) (0, 0) (0, 21.12868316995457) (73, 83.39380557249349)
 x(6,2): (0, 0) (0, 0) (0, 8.318689978174005) (62, 33.96411484889764)
 x(6,3): (0, 0) (0, 0) (0, 8.594718577608633) (73, 33.92290396169228)
 x(6,4): (0, 0) (0, 0) (0, 37.53720432164649) (42, 139.6136093691161)
 x(6,5): (0, 0) (0, 0) (0, 15.75698405894917) (73, 62.19199059643579)
 x(6,6): (0, 0) (0, 0) (0, 17.18943715521727) (73, 67.84580792338456)
 x(6,7): (0, 0) (0, 0) (0, 32.77327017740147) (23, 111.0403718837117)
 x(6,8): (0, 0) (0, 0) (0, 26.91965592504712) (9, 90.18328729661512)
 x(6,9): (0, 0) (0, 0) (0, 27.14308110782098) (6, 86.99343658172324)
 x(6,10): (0, 0) (0, 0) (0, 10.38528494794375) (73, 40.99017562037817)
 x(7,1): (0, 0) (0, 0) (0, 45.24694107209057) (22, 161.6564259486217)
 x(7,2): (0, 0) (0, 0) (0, 28.27933817005657) (22, 101.0352662178886)
 x(7,3): (0, 0) (0, 0) (0, 27.84427142897879) (22, 99.48087750684412)
 x(7,4): (0, 0) (0, 0) (0, 30.88973861652334) (22, 110.3615984841552)
 x(7,5): (0, 0) (0, 0) (0, 6.090934375089107) (22, 21.76144195462216)
 x(7,6): (0, 0) (0, 0) (0, 5.220800892933521) (22, 18.65266453253328)
 x(7,7): (0, 0) (0, 0) (0, 23.05853727712308) (22, 82.38260168535528)
 x(7,8): (0, 0) (0, 0) (0, 49.43427724417744) (9, 165.6093093992385)
 x(7,9): (0, 0) (0, 0) (0, 26.1377818075313) (6, 83.77145744906683)
 x(7,10): (0, 0) (0, 0) (0, 13.92213571448939) (22, 49.74043875342206)
 x(8,1): (0, 0) (0, 0) (0, 25.85051900005944) (7, 87.32185849092672)
 x(8,2): (0, 0) (0, 0) (0, 5.265846462975072) (7, 17.78778598889247)
 x(8,3): (0, 0) (0, 0) (0, 22.0208124815321) (7, 74.38528686264129)
 x(8,4): (0, 0) (0, 0) (0, 35.42478529637774) (7, 119.6632875616403)
 x(8,5): (0, 0) (0, 0) (0, 17.23367933337294) (7, 58.21457232728451)
 x(8,6): (0, 0) (0, 0) (0, 17.23367933337294) (7, 58.21457232728451)
 x(8,7): (0, 0) (0, 0) (0, 24.8930923704276) (7, 84.08771558385538)
 x(8,8): (0, 0) (0, 0) (0, 23.93566574079574) (7, 80.85357267678407)
 x(8,9): (0, 0) (0, 0) (0, 16.08478880463464) (6, 51.55166612250269)
 x(8,10): (0, 0) (0, 0) (0, 7.659413037054646) (7, 25.87314325657089)
 x(9,1): (0, 0) (0, 0) (0, 29.52942453768168) (1, 37.44884748558125)
 x(9,2): (0, 0) (0, 0) (0, 38.75736970570719) (1, 49.15161232482538)
 x(9,3): (0, 0) (0, 0) (0, 79.3603284450195) (1, 100.6437776174996)
 x(9,4): (0, 0) (0, 0) (0, 48.90810939053528) (1, 62.02465364799396)
 x(9,5): (0, 0) (0, 0) (0, 63.67282165937611) (1, 80.74907739078458)
 x(9,6): (0, 0) (0, 0) (0, 62.75002714257359) (1, 79.57880090686014)
 x(9,7): (0, 0) (0, 0) (0, 47.06252035693017) (1, 59.68410068014511)
 x(9,8): (0, 0) (0, 0) (0, 29.52942453768168) (1, 37.44884748558125)
 x(9,9): (0, 0) (0, 0) (0, 39.68016422250975) (1, 50.32188880874979)
 x(9,10): (0, 0) (0, 0) (0, 52.59928745774548) (1, 66.7057595836916)
 x(10,1): (0, 0) (0, 0) (0, 31.2117355464426) (138, 122.2483779130587)
 x(10,2): (0, 0) (0, 0) (0, 17.72242647524029) (62, 72.35833163460798)
 x(10,3): (0, 0) (0, 0) (0, 20.69830883606195) (138, 81.06997693181788)
 x(10,4): (0, 0) (0, 0) (0, 22.91745105953155) (42, 85.23778256219718)
 x(10,5): (0, 0) (0, 0) (0, 5.063447104457057) (79, 18.98117651914343)
 x(10,6): (0, 0) (0, 0) (0, 2.011389259176578) (127, 7.60153300930065)
 x(10,7): (0, 0) (0, 0) (0, 16.16216063543087) (23, 54.75963544950161)
 x(10,8): (0, 0) (0, 0) (0, 43.07144948007536) (9, 144.2932596745842)
 x(10,9): (0, 0) (0, 0) (0, 18.09538740521397) (6, 57.99562438781552)
 x(10,10): (0, 0) (0, 0) (0, 9.026243380418972) (124, 32.67666551961837)
End
